p cnf 19 10
a 1 0
e 2 0
a 3 4 5 6 7 0
e 8 9 10 11 0
a 12 0
e 13 14 15 16 0
a 17 0
e 18 0
a 19 0
14 10 -1 2 0
15 -6 -1 13 4 0
-10 -8 17 12 0
-4 -11 -16 8 -2 0
-11 2 0
-15 10 7 0
-1 13 3 -11 17 0
16 4 5 -14 -19 0
4 -7 6 -16 0
-1 10 -2 0
